Total weight: 726.2103295510786
Route 1: 0 20 22 24 27 30 29 6 32 34 28 26 23 18 19 16 14 12 15 17 13 25 9 11 10 8 21 0 
Route 2: 0 69 66 68 31 35 37 38 39 36 33 44 40 46 45 51 50 52 47 42 41 43 48 0 
Route 3: 0 67 63 62 74 72 61 64 65 49 55 54 53 56 58 60 59 57 86 84 83 82 85 76 71 70 73 80 79 81 78 77 87 96 0 
Route 4: 0 93 5 75 2 1 99 100 97 92 94 95 98 7 3 4 89 91 88 90 0 
